DIMENSION: 76
31
10
38
65
66
11
59
14
53
7
35
8
19
54
13
57
15
20
70
60
71
69
36
37
5
47
21
61
28
22
62
73
1
43
42
64
41
56
23
24
49
63
16
33
74
2
30
48
29
45
4
27
52
34
46
67
51
6
68
75
76
26
17
40
12
58
72
39
9
32
3
44
50
18
55
25
